dummy/m_a_nodeclass/a.smt2.cnf
c observe --> [ 24 25 26 27 28 29 30 31]
c control --> [ 32 33 34 35 36 37 38 39]
c other --> [ 40 41 42 43 44 45 46 47]
c secret --> [ 16 17 18 19 20 21 22 23]
c Result of efficient AIG-to-CNF conversion using package CNF
p cnf 48 57
2 -3 -6 -9 -11 0
-2 11 0
-2 3 0
-2 9 0
-2 6 0
3 13 17 -4 -5 0
3 -13 -17 -4 -5 0
-3 5 0
-3 -13 17 0
-3 4 0
-3 13 -17 0
4 -12 -16 0
4 12 16 0
-4 12 -16 0
-4 -12 16 0
5 -14 15 -18 19 0
5 14 -15 18 -19 0
5 14 15 18 19 0
5 -14 -15 -18 -19 0
-5 -14 18 0
-5 14 -18 0
-5 15 -19 0
-5 -15 19 0
6 -24 25 7 -8 0
6 24 25 -7 -8 0
6 24 -25 -7 8 0
6 -24 -25 7 8 0
-6 -24 -7 0
-6 24 7 0
-6 25 8 0
-6 -25 -8 0
7 -20 -36 0
7 -36 40 0
-7 36 0
-7 20 -40 0
8 36 0
8 20 41 0
-8 -20 -36 0
-8 -36 -41 0
9 26 -27 10 0
9 26 27 -10 42 0
9 -26 27 -10 -42 0
-9 -27 -10 0
-9 -26 10 0
-9 26 27 -42 0
-9 -26 42 0
-9 27 10 0
10 20 -36 0
-10 -20 0
-10 36 0
11 28 29 30 31 0
-11 -31 0
-11 -30 0
-11 -28 0
-11 -29 0
48 0
2 0

